12 40 9 10
20 3 16 17 17 14 8 16 16 8 9 8 8 10 2 17 16 13 10 12 9 19 8 17 7 10 12 12 11 7 3 1 12 4 2 17 16 10 7 17 
7.6 7.01 1.2 2.14 5.92 2.66 2.19 0.45 6.17 5.38 2.96 5.09 7.01 5.58 5.61 0.74 7.75 3.55 0.15 5.34 1.67 7.87 5.82 5.81 7.37 4.06 4.76 0.56 3.03 3.54 0.97 5.52 0.82 4.36 3.91 3.72 0.94 2.07 0.57 7.71 
1.94 4.79 1.36 2.65 7.02 4.71 4.22 0.97 2.04 4.53 7.99 0.65 7.46 5.98 1.82 6.28 5.63 7.69 0.07 0.87 5.91 0.66 1.72 4.06 3.05 6.72 0.52 2.56 2.98 7.16 5.51 6.49 4.42 2.61 1.63 2.81 2.26 3.38 6.3 7.74 
1.53 1.78 4.84 0.15 7.77 2.14 3.48 3.06 7.58 7.95 2.91 4.45 2.81 2.95 1.14 6.11 3.06 4.91 7.77 2.28 4.97 4.57 7.63 0.5 6.64 0.66 2 7.09 7.21 3.07 6.96 1.38 2.98 0.05 5.61 3.77 0.65 2.26 0.71 1 
1.34 1 1.37 1.52 5.56 3.96 1.54 1.62 4.27 1.07 6.71 5.47 0.17 4.82 2.73 6.58 2.38 5.03 7.28 0.18 5.02 7.63 2.62 5.43 4.68 0.32 0.41 4.26 4.58 0.46 1.54 4.51 5.2 3.92 4.73 1.88 6.17 5.15 4.75 6.52 
6.96 6.71 0.31 6.45 4.71 7.36 5.16 7.44 1.86 0.45 1.11 0.18 5.99 3.52 6.31 3.55 5.25 6.96 5.22 3.28 0.61 1.27 3.8 0.72 6.65 0.32 0.01 4.68 0.05 2.28 5.74 3.32 0.38 2.2 4.39 5.04 4.36 0.23 7.07 2.65 
3.16 0.12 1.4 5.24 6.69 2.69 5.83 1.99 2.01 7.95 7.39 2.51 0.02 2.05 1.02 3.74 6.1 2.14 2.01 4.39 2.65 6.33 0.66 4.16 5.3 7.85 0.75 2.39 7.58 3.12 5.17 3.12 4.46 2.89 5.85 0.98 3.37 5.44 4.31 0.3 
6.02 1.9 7.6 3.21 1.57 6.57 7.17 3 0.2 3.87 0.52 3.47 2.47 3.2 3.02 5.54 1.92 4.7 4.63 6.55 5.51 5.07 1.59 5.26 2.56 6.01 1.92 6.34 7.78 4.46 0.82 4.37 0.01 3.12 1.96 2.25 5.68 3.71 7.23 4.51 
0.16 4.3 1.84 4.22 5.48 2.5 5.03 2 1.69 0.46 2.16 7.74 6.11 1.28 6.19 6.29 5.17 1.96 3.43 7.73 6.8 5.72 5.61 4.91 5.61 0.76 4.6 2.44 6.45 7.67 6.29 2.85 5.84 3.47 6.88 1.79 6.69 0.73 6.04 7.78 
7.24 0.24 5.9 0.46 1.86 2.81 4.19 6.16 1.54 1.43 6.15 4.46 1.37 0.67 3.05 3.32 1.46 4.17 1.84 2.52 2.07 0.72 0.46 4.86 5.64 7.59 4.67 2.1 3.49 3.68 1.78 7.13 1.43 2.69 4.07 1.17 6.62 3.33 3.95 6.27 
4 4 4 4 4 4 4 4 4 4 4 4 4 4 4 4 4 4 4 4 4 4 4 4 4 4 4 4 4 4 4 4 4 4 4 4 4 4 4 4 
1.7 7.01 6.96 2.76 6.28 6.44 2.38 1.19 5.06 7.02 7.92 6.77 0.08 6.49 3.17 7.4 1.66 0.41 1.6 3.27 0.96 2.51 3.93 2.08 1.81 0.6 7.02 3.22 0.93 4.26 1.36 5.63 1.52 1.57 0.43 7.26 5.09 2.01 4.87 0.39 
7.36 3.88 5.76 0.45 7.2 6 2 1.91 2.16 6.67 3.43 1.52 3.94 1.61 7.2 3.98 0.18 5.74 4.92 5.79 2.67 3.17 7.68 5.79 5.85 0.37 3.65 2.4 1.67 3.49 7.73 7.81 4.07 7.35 6.89 6.14 7.19 1.22 3.22 5.43 
1 1 1 1 1 1 1 1 1 1 1 1 1 1 1 1 1 1 1 1 1 1 1 1 1 1 1 1 1 1 1 1 1 1 1 1 1 1 1 1 
1 1 1 1 1 1 1 1 1 1 1 1 1 1 1 1 1 1 1 1 1 1 1 1 1 1 1 1 1 1 1 1 1 1 1 1 1 1 1 1 
1 1 1 1 1 1 1 1 1 1 1 1 1 1 1 1 1 1 1 1 1 1 1 1 1 1 1 1 1 1 1 1 1 1 1 1 1 1 1 1 
1 1 1 1 1 1 1 1 1 1 1 1 1 1 1 1 1 1 1 1 1 1 1 1 1 1 1 1 1 1 1 1 1 1 1 1 1 1 1 1 
1 1 1 1 1 1 1 1 1 1 1 1 1 1 1 1 1 1 1 1 1 1 1 1 1 1 1 1 1 1 1 1 1 1 1 1 1 1 1 1 
1 1 1 1 1 1 1 1 1 1 1 1 1 1 1 1 1 1 1 1 1 1 1 1 1 1 1 1 1 1 1 1 1 1 1 1 1 1 1 1 
1 1 1 1 1 1 1 1 1 1 1 1 1 1 1 1 1 1 1 1 1 1 1 1 1 1 1 1 1 1 1 1 1 1 1 1 1 1 1 1 
1 1 1 1 1 1 1 1 1 1 1 1 1 1 1 1 1 1 1 1 1 1 1 1 1 1 1 1 1 1 1 1 1 1 1 1 1 1 1 1 
1 1 1 1 1 1 1 1 1 1 1 1 1 1 1 1 1 1 1 1 1 1 1 1 1 1 1 1 1 1 1 1 1 1 1 1 1 1 1 1 
1 1 1 1 1 1 1 1 1 1 1 1 1 1 1 1 1 1 1 1 1 1 1 1 1 1 1 1 1 1 1 1 1 1 1 1 1 1 1 1 
1 1 1 1 1 1 1 1 1 1 1 1 1 1 1 1 1 1 1 1 1 1 1 1 1 1 1 1 1 1 1 1 1 1 1 1 1 1 1 1 
1 1 1 1 1 1 1 1 1 1 1 1 1 1 1 1 1 1 1 1 1 1 1 1 1 1 1 1 1 1 1 1 1 1 1 1 1 1 1 1 
0.01 0.01 0.01 0.01 0.01 0.01 0.01 0.01 0.01 0.01 0.01 0.01 0.01 0.01 0.01 0.01 0.01 0.01 0.01 0.01 0.01 0.01 0.01 0.01 0.01 0.01 0.01 0.01 0.01 0.01 0.01 0.01 0.01 0.01 0.01 0.01 0.01 0.01 0.01 0.01 
0.02 0.02 0.02 0.02 0.02 0.02 0.02 0.02 0.02 0.02 0.02 0.02 0.02 0.02 0.02 0.02 0.02 0.02 0.02 0.02 0.02 0.02 0.02 0.02 0.02 0.02 0.02 0.02 0.02 0.02 0.02 0.02 0.02 0.02 0.02 0.02 0.02 0.02 0.02 0.02 
0.03 0.03 0.03 0.03 0.03 0.03 0.03 0.03 0.03 0.03 0.03 0.03 0.03 0.03 0.03 0.03 0.03 0.03 0.03 0.03 0.03 0.03 0.03 0.03 0.03 0.03 0.03 0.03 0.03 0.03 0.03 0.03 0.03 0.03 0.03 0.03 0.03 0.03 0.03 0.03 
0.04 0.04 0.04 0.04 0.04 0.04 0.04 0.04 0.04 0.04 0.04 0.04 0.04 0.04 0.04 0.04 0.04 0.04 0.04 0.04 0.04 0.04 0.04 0.04 0.04 0.04 0.04 0.04 0.04 0.04 0.04 0.04 0.04 0.04 0.04 0.04 0.04 0.04 0.04 0.04 
0.05 0.05 0.05 0.05 0.05 0.05 0.05 0.05 0.05 0.05 0.05 0.05 0.05 0.05 0.05 0.05 0.05 0.05 0.05 0.05 0.05 0.05 0.05 0.05 0.05 0.05 0.05 0.05 0.05 0.05 0.05 0.05 0.05 0.05 0.05 0.05 0.05 0.05 0.05 0.05 
0.06 0.06 0.06 0.06 0.06 0.06 0.06 0.06 0.06 0.06 0.06 0.06 0.06 0.06 0.06 0.06 0.06 0.06 0.06 0.06 0.06 0.06 0.06 0.06 0.06 0.06 0.06 0.06 0.06 0.06 0.06 0.06 0.06 0.06 0.06 0.06 0.06 0.06 0.06 0.06 
0.07 0.07 0.07 0.07 0.07 0.07 0.07 0.07 0.07 0.07 0.07 0.07 0.07 0.07 0.07 0.07 0.07 0.07 0.07 0.07 0.07 0.07 0.07 0.07 0.07 0.07 0.07 0.07 0.07 0.07 0.07 0.07 0.07 0.07 0.07 0.07 0.07 0.07 0.07 0.07 
0.08 0.08 0.08 0.08 0.08 0.08 0.08 0.08 0.08 0.08 0.08 0.08 0.08 0.08 0.08 0.08 0.08 0.08 0.08 0.08 0.08 0.08 0.08 0.08 0.08 0.08 0.08 0.08 0.08 0.08 0.08 0.08 0.08 0.08 0.08 0.08 0.08 0.08 0.08 0.08 
0.09 0.09 0.09 0.09 0.09 0.09 0.09 0.09 0.09 0.09 0.09 0.09 0.09 0.09 0.09 0.09 0.09 0.09 0.09 0.09 0.09 0.09 0.09 0.09 0.09 0.09 0.09 0.09 0.09 0.09 0.09 0.09 0.09 0.09 0.09 0.09 0.09 0.09 0.09 0.09 
0.1 0.1 0.1 0.1 0.1 0.1 0.1 0.1 0.1 0.1 0.1 0.1 0.1 0.1 0.1 0.1 0.1 0.1 0.1 0.1 0.1 0.1 0.1 0.1 0.1 0.1 0.1 0.1 0.1 0.1 0.1 0.1 0.1 0.1 0.1 0.1 0.1 0.1 0.1 0.1 
0.5 0.5 0.5 0.5 0.5 0.5 0.5 0.5 0.5 0.5 0.5 0.5 0.5 0.5 0.5 0.5 0.5 0.5 0.5 0.5 0.5 0.5 0.5 0.5 0.5 0.5 0.5 0.5 0.5 0.5 0.5 0.5 0.5 0.5 0.5 0.5 0.5 0.5 0.5 0.5 
1 1 1 1 1 1 1 1 1 1 1 1 1 1 1 1 1 1 1 1 1 1 1 1 1 1 1 1 1 1 1 1 1 1 1 1 1 1 1 1 
